17724
1 0 1 0 0 1 0 0 0 1 0 1 1 1 1 1 1 1 0 0 1 0 0 1 1 0 0 1 1 1 
20 11 13 2 20 5 2 9 14 17 9 16 28 20 17 14 14 17 5 11 2 0 5 17 5 20 2 24 5 24 5 11 13 11 20 20 24 15 0 14 0 14 15 28 24 14 0 13 27 28 29 14 14 5 13 20 17 11 0 14 0 5 20 11 11 11 9 0 5 9 20 20 11 17 24 20 9 20 14 24 20 0 13 17 17 17 17 0 20 5 2 24 17 11 17 5 2 2 29 16 16 17 17 11 2 29 17 11 14 28 14 14 2 11 11 27 24 24 24 24 5 28 11 13 16 0 5 9 0 12 0 11 24 5 28 14 0 5 13 0 0 28 13 2 2 27 0 24 2 24 

Total Run Time: 250266 ms.
